data/rand/rand_040.gr
p tdp 15 62
1 3
1 4
1 5
1 6
1 7
1 9
1 11
1 12
1 14
2 3
2 4
2 5
2 6
2 7
2 8
2 12
2 15
3 4
3 6
3 9
3 13
3 14
3 15
4 5
4 6
4 8
4 10
4 12
4 13
4 15
5 7
5 8
5 9
5 10
5 12
5 13
6 7
6 13
6 14
6 15
7 8
7 9
7 10
7 11
7 12
7 13
8 10
8 11
8 15
9 11
9 13
9 14
10 11
10 13
10 14
10 15
11 12
11 14
12 13
12 15
13 14
14 15
