solutions/best/rand/rand_040.sol
11
0
1
11
2
7
3
15
10
3
11
5
11
4
13
14
